enter Q
Maximize

252 dSta_0 + 2 d0_1 + 30 d0_1 + 0 d0_1.0 + 0 d0_1.0 + 90 d0_1 + 0 d0_1.0 + 0 d0_1.0 + 0 d0_1.0 + 2 dc1_2 + 0 dc1_2 + 0 dc1_2.0 + 0 dc1_2.0 + 0 dc1_2 + 30 dc1_2.0 + 0 dc1_2.0 + 0 dc1_2.0 + 5 dm1_2 + 0 dm1_2 + 0 dm1_2.0 + 0 dm1_2.0 + 0 dm1_2 + 30 dm1_2.0 + 0 dm1_2.0 + 0 dm1_2.0 + 4 dc1_3 + 0 dc1_3 + 0 dc1_3.0 + 0 dc1_3.0 + 0 dc1_3 + 30 dc1_3.0 + 0 dc1_3.0 + 0 dc1_3.0 + 7 dm1_3 + 0 dm1_3 + 0 dm1_3.0 + 0 dm1_3.0 + 0 dm1_3 + 30 dm1_3.0 + 0 dm1_3.0 + 0 dm1_3.0 + 4 d2_4 + 30 d2_4 + 0 d2_4.0 + 0 d2_4.0 + 0 d2_4 + 60 d2_4.0 + 0 d2_4.0 + 0 d2_4.0 + 4 d3_4 + 30 d3_4 + 0 d3_4.0 + 0 d3_4.0 + 0 d3_4 + 60 d3_4.0 + 0 d3_4.0 + 0 d3_4.0 + 2 dc4_5 + 0 dc4_5 + 0 dc4_5.0 + 0 dc4_5.0 + 0 dc4_5 + 60 dc4_5.0 + 0 dc4_5.0 + 0 dc4_5.0 + 5 dm4_5 + 0 dm4_5 + 0 dm4_5.0 + 0 dm4_5.0 + 0 dm4_5 + 60 dm4_5.0 + 0 dm4_5.0 + 0 dm4_5.0 + 2 dc4_1 + 0 dc4_1 + 0 dc4_1.0 + 0 dc4_1.0 + 0 dc4_1 + 60 dc4_1.0 + 0 dc4_1.0 + 0 dc4_1.0 + 5 dm4_1 + 0 dm4_1 + 0 dm4_1.0 + 0 dm4_1.0 + 0 dm4_1 + 60 dm4_1.0 + 0 dm4_1.0 + 0 dm4_1.0 + 5 d5_7 + 0 d5_7 + 0 d5_7.0 + 0 d5_7.0 + 0 d5_7 + 30 d5_7.0 + 0 d5_7.0 + 0 d5_7.0 + 4 dc7_8 + 30 dc7_8 + 0 dc7_8.0 + 0 dc7_8.0 + 60 dc7_8 + 0 dc7_8.0 + 0 dc7_8.0 + 0 dc7_8.0 + 7 dm7_8 + 30 dm7_8 + 0 dm7_8.0 + 0 dm7_8.0 + 60 dm7_8 + 0 dm7_8.0 + 0 dm7_8.0 + 0 dm7_8.0 + 3 dc7_28 + 30 dc7_28 + 0 dc7_28.0 + 0 dc7_28.0 + 60 dc7_28 + 0 dc7_28.0 + 0 dc7_28.0 + 0 dc7_28.0 + 7 dm7_28 + 30 dm7_28 + 0 dm7_28.0 + 0 dm7_28.0 + 60 dm7_28 + 0 dm7_28.0 + 0 dm7_28.0 + 0 dm7_28.0 + 2 d8_9 + 0 d8_9 + 0 d8_9.0 + 0 d8_9.0 + 30 d8_9 + 30 d8_9.0 + 0 d8_9.0 + 0 d8_9.0 + 24 dc9_10 + 0 dc9_10 + 0 dc9_10.0 + 0 dc9_10.0 + 0 dc9_10 + 60 dc9_10.0 + 0 dc9_10.0 + 0 dc9_10.0 + 28 dm9_10 + 0 dm9_10 + 0 dm9_10.0 + 0 dm9_10.0 + 0 dm9_10 + 60 dm9_10.0 + 0 dm9_10.0 + 0 dm9_10.0 + 3 dc9_27 + 0 dc9_27 + 0 dc9_27.0 + 0 dc9_27.0 + 0 dc9_27 + 60 dc9_27.0 + 0 dc9_27.0 + 0 dc9_27.0 + 6 dm9_27 + 0 dm9_27 + 0 dm9_27.0 + 0 dm9_27.0 + 0 dm9_27 + 60 dm9_27.0 + 0 dm9_27.0 + 0 dm9_27.0 + 5 dc10_11 + 0 dc10_11 + 0 dc10_11.0 + 0 dc10_11.0 + 0 dc10_11 + 150 dc10_11.0 + 0 dc10_11.0 + 0 dc10_11.0 + 8 dm10_11 + 0 dm10_11 + 0 dm10_11.0 + 0 dm10_11.0 + 0 dm10_11 + 150 dm10_11.0 + 0 dm10_11.0 + 0 dm10_11.0 + 2 dc10_20 + 0 dc10_20 + 0 dc10_20.0 + 0 dc10_20.0 + 0 dc10_20 + 150 dc10_20.0 + 0 dc10_20.0 + 0 dc10_20.0 + 5 dm10_20 + 0 dm10_20 + 0 dm10_20.0 + 0 dm10_20.0 + 0 dm10_20 + 150 dm10_20.0 + 0 dm10_20.0 + 0 dm10_20.0 + 2 d11_12 + 0 d11_12 + 0 d11_12.0 + 0 d11_12.0 + 0 d11_12 + 60 d11_12.0 + 0 d11_12.0 + 0 d11_12.0 + 4 dc12_13 + 0 dc12_13 + 0 dc12_13.0 + 0 dc12_13.0 + 0 dc12_13 + 30 dc12_13.0 + 0 dc12_13.0 + 0 dc12_13.0 + 7 dm12_13 + 0 dm12_13 + 0 dm12_13.0 + 0 dm12_13.0 + 0 dm12_13 + 30 dm12_13.0 + 0 dm12_13.0 + 0 dm12_13.0 + 2 dc12_17 + 0 dc12_17 + 0 dc12_17.0 + 0 dc12_17.0 + 0 dc12_17 + 30 dc12_17.0 + 0 dc12_17.0 + 0 dc12_17.0 + 5 dm12_17 + 0 dm12_17 + 0 dm12_17.0 + 0 dm12_17.0 + 0 dm12_17 + 30 dm12_17.0 + 0 dm12_17.0 + 0 dm12_17.0 + 4 dc13_14 + 60 dc13_14 + 0 dc13_14.0 + 0 dc13_14.0 + 0 dc13_14 + 30 dc13_14.0 + 0 dc13_14.0 + 0 dc13_14.0 + 7 dm13_14 + 60 dm13_14 + 0 dm13_14.0 + 0 dm13_14.0 + 0 dm13_14 + 30 dm13_14.0 + 0 dm13_14.0 + 0 dm13_14.0 + 3 dc13_15 + 60 dc13_15 + 0 dc13_15.0 + 0 dc13_15.0 + 0 dc13_15 + 30 dc13_15.0 + 0 dc13_15.0 + 0 dc13_15.0 + 6 dm13_15 + 60 dm13_15 + 0 dm13_15.0 + 0 dm13_15.0 + 0 dm13_15 + 30 dm13_15.0 + 0 dm13_15.0 + 0 dm13_15.0 + 4 d14_16 + 30 d14_16 + 0 d14_16.0 + 0 d14_16.0 + 0 d14_16 + 30 d14_16.0 + 0 d14_16.0 + 0 d14_16.0 + 4 d15_16 + 30 d15_16 + 0 d15_16.0 + 0 d15_16.0 + 0 d15_16 + 30 d15_16.0 + 0 d15_16.0 + 0 d15_16.0 + 2 dc16_17 + 0 dc16_17 + 0 dc16_17.0 + 0 dc16_17.0 + 0 dc16_17 + 60 dc16_17.0 + 0 dc16_17.0 + 0 dc16_17.0 + 5 dm16_17 + 0 dm16_17 + 0 dm16_17.0 + 0 dm16_17.0 + 0 dm16_17 + 60 dm16_17.0 + 0 dm16_17.0 + 0 dm16_17.0 + 2 dc16_12 + 0 dc16_12 + 0 dc16_12.0 + 0 dc16_12.0 + 0 dc16_12 + 60 dc16_12.0 + 0 dc16_12.0 + 0 dc16_12.0 + 5 dm16_12 + 0 dm16_12 + 0 dm16_12.0 + 0 dm16_12.0 + 0 dm16_12 + 60 dm16_12.0 + 0 dm16_12.0 + 0 dm16_12.0 + 4 dc17_18 + 0 dc17_18 + 0 dc17_18.0 + 0 dc17_18.0 + 0 dc17_18 + 60 dc17_18.0 + 0 dc17_18.0 + 0 dc17_18.0 + 7 dm17_18 + 0 dm17_18 + 0 dm17_18.0 + 0 dm17_18.0 + 0 dm17_18 + 60 dm17_18.0 + 0 dm17_18.0 + 0 dm17_18.0 + 2 dc17_20 + 0 dc17_20 + 0 dc17_20.0 + 0 dc17_20.0 + 0 dc17_20 + 60 dc17_20.0 + 0 dc17_20.0 + 0 dc17_20.0 + 5 dm17_20 + 0 dm17_20 + 0 dm17_20.0 + 0 dm17_20.0 + 0 dm17_20 + 60 dm17_20.0 + 0 dm17_20.0 + 0 dm17_20.0 + 8 d18_19 + 0 d18_19 + 0 d18_19.0 + 0 d18_19.0 + 0 d18_19 + 60 d18_19.0 + 0 d18_19.0 + 0 d18_19.0 + 2 dc19_20 + 60 dc19_20 + 0 dc19_20.0 + 0 dc19_20.0 + 0 dc19_20 + 90 dc19_20.0 + 0 dc19_20.0 + 0 dc19_20.0 + 5 dm19_20 + 60 dm19_20 + 0 dm19_20.0 + 0 dm19_20.0 + 0 dm19_20 + 90 dm19_20.0 + 0 dm19_20.0 + 0 dm19_20.0 + 8 dc19_19 + 60 dc19_19 + 0 dc19_19.0 + 0 dc19_19.0 + 0 dc19_19 + 90 dc19_19.0 + 0 dc19_19.0 + 0 dc19_19.0 + 12 dm19_19 + 60 dm19_19 + 0 dm19_19.0 + 0 dm19_19.0 + 0 dm19_19 + 90 dm19_19.0 + 0 dm19_19.0 + 0 dm19_19.0 + 4 dc20_21 + 0 dc20_21 + 0 dc20_21.0 + 0 dc20_21.0 + 0 dc20_21 + 30 dc20_21.0 + 0 dc20_21.0 + 0 dc20_21.0 + 7 dm20_21 + 0 dm20_21 + 0 dm20_21.0 + 0 dm20_21.0 + 0 dm20_21 + 30 dm20_21.0 + 0 dm20_21.0 + 0 dm20_21.0 + 3 dc20_23 + 0 dc20_23 + 0 dc20_23.0 + 0 dc20_23.0 + 0 dc20_23 + 30 dc20_23.0 + 0 dc20_23.0 + 0 dc20_23.0 + 6 dm20_23 + 0 dm20_23 + 0 dm20_23.0 + 0 dm20_23.0 + 0 dm20_23 + 30 dm20_23.0 + 0 dm20_23.0 + 0 dm20_23.0 + 7 d21_22 + 0 d21_22 + 0 d21_22.0 + 0 d21_22.0 + 0 d21_22 + 60 d21_22.0 + 0 d21_22.0 + 0 d21_22.0 + 3 dc22_23 + 60 dc22_23 + 0 dc22_23.0 + 0 dc22_23.0 + 0 dc22_23 + 90 dc22_23.0 + 0 dc22_23.0 + 0 dc22_23.0 + 6 dm22_23 + 60 dm22_23 + 0 dm22_23.0 + 0 dm22_23.0 + 0 dm22_23 + 90 dm22_23.0 + 0 dm22_23.0 + 0 dm22_23.0 + 7 dc22_22 + 60 dc22_22 + 0 dc22_22.0 + 0 dc22_22.0 + 0 dc22_22 + 90 dc22_22.0 + 0 dc22_22.0 + 0 dc22_22.0 + 11 dm22_22 + 60 dm22_22 + 0 dm22_22.0 + 0 dm22_22.0 + 0 dm22_22 + 90 dm22_22.0 + 0 dm22_22.0 + 0 dm22_22.0 + 3 dc23_24 + 0 dc23_24 + 0 dc23_24.0 + 0 dc23_24.0 + 0 dc23_24 + 60 dc23_24.0 + 0 dc23_24.0 + 0 dc23_24.0 + 6 dm23_24 + 0 dm23_24 + 0 dm23_24.0 + 0 dm23_24.0 + 0 dm23_24 + 60 dm23_24.0 + 0 dm23_24.0 + 0 dm23_24.0 + 6 dc23_26 + 0 dc23_26 + 0 dc23_26.0 + 0 dc23_26.0 + 0 dc23_26 + 60 dc23_26.0 + 0 dc23_26.0 + 0 dc23_26.0 + 10 dm23_26 + 0 dm23_26 + 0 dm23_26.0 + 0 dm23_26.0 + 0 dm23_26 + 60 dm23_26.0 + 0 dm23_26.0 + 0 dm23_26.0 + 8 d24_25 + 0 d24_25 + 0 d24_25.0 + 0 d24_25.0 + 0 d24_25 + 30 d24_25.0 + 0 d24_25.0 + 0 d24_25.0 + 6 dc25_26 + 60 dc25_26 + 0 dc25_26.0 + 0 dc25_26.0 + 0 dc25_26 + 60 dc25_26.0 + 0 dc25_26.0 + 0 dc25_26.0 + 10 dm25_26 + 60 dm25_26 + 0 dm25_26.0 + 0 dm25_26.0 + 0 dm25_26 + 60 dm25_26.0 + 0 dm25_26.0 + 0 dm25_26.0 + 7 dc25_25 + 60 dc25_25 + 0 dc25_25.0 + 0 dc25_25.0 + 0 dc25_25 + 60 dc25_25.0 + 0 dc25_25.0 + 0 dc25_25.0 + 11 dm25_25 + 60 dm25_25 + 0 dm25_25.0 + 0 dm25_25.0 + 0 dm25_25 + 60 dm25_25.0 + 0 dm25_25.0 + 0 dm25_25.0 + 3 dc26_27 + 0 dc26_27 + 0 dc26_27.0 + 0 dc26_27.0 + 0 dc26_27 + 60 dc26_27.0 + 0 dc26_27.0 + 0 dc26_27.0 + 6 dm26_27 + 0 dm26_27 + 0 dm26_27.0 + 0 dm26_27.0 + 0 dm26_27 + 60 dm26_27.0 + 0 dm26_27.0 + 0 dm26_27.0 + 24 dc26_10 + 0 dc26_10 + 0 dc26_10.0 + 0 dc26_10.0 + 0 dc26_10 + 60 dc26_10.0 + 0 dc26_10.0 + 0 dc26_10.0 + 28 dm26_10 + 0 dm26_10 + 0 dm26_10.0 + 0 dm26_10.0 + 0 dm26_10 + 60 dm26_10.0 + 0 dm26_10.0 + 0 dm26_10.0 + 3 dc27_28 + 0 dc27_28 + 0 dc27_28.0 + 0 dc27_28.0 + 0 dc27_28 + 60 dc27_28.0 + 0 dc27_28.0 + 0 dc27_28.0 + 7 dm27_28 + 0 dm27_28 + 0 dm27_28.0 + 0 dm27_28.0 + 0 dm27_28 + 60 dm27_28.0 + 0 dm27_28.0 + 0 dm27_28.0 + 2 dc27_9 + 0 dc27_9 + 0 dc27_9.0 + 0 dc27_9.0 + 0 dc27_9 + 60 dc27_9.0 + 0 dc27_9.0 + 0 dc27_9.0 + 5 dm27_9 + 0 dm27_9 + 0 dm27_9.0 + 0 dm27_9.0 + 0 dm27_9 + 60 dm27_9.0 + 0 dm27_9.0 + 0 dm27_9.0 + 4 d28_6 + 30 d28_6 + 0 d28_6.0 + 0 d28_6.0 + 0 d28_6 + 60 d28_6.0 + 0 d28_6.0 + 0 d28_6.0


Subject to

bm - dm4_1 - dm1_2 - dm1_3 - dm4_5 - dm7_8 - dm27_9 - dm9_10 - dm26_10 - dm10_11 - dm16_12 - dm12_13 - dm13_14 - dm13_15 - dm12_17 - dm16_17 - dm17_18 - dm19_19 - dm10_20 - dm17_20 - dm19_20 - dm20_21 - dm22_22 - dm20_23 - dm22_23 - dm23_24 - dm25_25 - dm23_26 - dm25_26 - dm9_27 - dm26_27 - dm7_28 - dm27_28 = 0

\ === tcfg constraints ===
dSta_0 = 1
b0 - d0_1 = 0
b0 - dSta_0 = 0
b1 - d1_2 - d1_3 = 0
b1 - d0_1 - d4_1 = 0
b2 - d2_4 = 0
b2 - d1_2 = 0
b3 - d3_4 = 0
b3 - d1_3 = 0
b4 - d4_5 - d4_1 = 0
b4 - d2_4 - d3_4 = 0
b5 - d5_7 = 0
b5 - d4_5 = 0
b6 - d28_6 = 0
b7 - d7_8 - d7_28 = 0
b7 - d5_7 = 0
b8 - d8_9 = 0
b8 - d7_8 = 0
b9 - d9_10 - d9_27 = 0
b9 - d8_9 - d27_9 = 0
b10 - d10_11 - d10_20 = 0
b10 - d9_10 - d26_10 = 0
b11 - d11_12 = 0
b11 - d10_11 = 0
b12 - d12_13 - d12_17 = 0
b12 - d11_12 - d16_12 = 0
b13 - d13_14 - d13_15 = 0
b13 - d12_13 = 0
b14 - d14_16 = 0
b14 - d13_14 = 0
b15 - d15_16 = 0
b15 - d13_15 = 0
b16 - d16_17 - d16_12 = 0
b16 - d14_16 - d15_16 = 0
b17 - d17_18 - d17_20 = 0
b17 - d12_17 - d16_17 = 0
b18 - d18_19 = 0
b18 - d17_18 = 0
b19 - d19_20 - d19_19 = 0
b19 - d18_19 - d19_19 = 0
b20 - d20_21 - d20_23 = 0
b20 - d10_20 - d17_20 - d19_20 = 0
b21 - d21_22 = 0
b21 - d20_21 = 0
b22 - d22_23 - d22_22 = 0
b22 - d21_22 - d22_22 = 0
b23 - d23_24 - d23_26 = 0
b23 - d20_23 - d22_23 = 0
b24 - d24_25 = 0
b24 - d23_24 = 0
b25 - d25_26 - d25_25 = 0
b25 - d24_25 - d25_25 = 0
b26 - d26_27 - d26_10 = 0
b26 - d23_26 - d25_26 = 0
b27 - d27_28 - d27_9 = 0
b27 - d9_27 - d26_27 = 0
b28 - d28_6 = 0
b28 - d7_28 - d27_28 = 0

c0 - f0_2T - f0_1N <= 0
c0 - f0_2T - f0_1N >= 0
c0 <= 1
c0 >= 0
c1 - f1_4T - f1_3N <= 0
c1 - f1_4T - f1_3N >= 0
c1 - f0_1N <= 0
c1 - f0_1N >= 0
c2 - f2_6T - f2_5N <= 0
c2 - f2_6T - f2_5N >= 0
c2 - f0_2T <= 0
c2 - f0_2T >= 0
c3 - f3_7N <= 1
c3 - f3_7N >= 0
c3 - f8_3N - f1_3N <= 0
c3 - f8_3N - f1_3N >= 0
c4 - f4_9T - f4_8N <= 0
c4 - f4_9T - f4_8N >= 0
c4 - f8_4T - f1_4T <= 0
c4 - f8_4T - f1_4T >= 0
c5 - f5_7N <= 1
c5 - f5_7N >= 0
c5 - f9_5N - f2_5N <= 0
c5 - f9_5N - f2_5N >= 0
c6 - f6_9T - f6_8N <= 0
c6 - f6_9T - f6_8N >= 0
c6 - f9_6T - f2_6T <= 0
c6 - f9_6T - f2_6T >= 0
c7 - f7_11T - f7_10N <= 0
c7 - f7_11T - f7_10N >= 0
c7 - f5_7N - f3_7N <= 0
c7 - f5_7N - f3_7N >= 0
c8 - f8_4T - f8_3N <= 0
c8 - f8_4T - f8_3N >= 0
c8 - f6_8N - f4_8N <= 0
c8 - f6_8N - f4_8N >= 0
c9 - f9_6T - f9_5N <= 0
c9 - f9_6T - f9_5N >= 0
c9 - f6_9T - f4_9T <= 0
c9 - f6_9T - f4_9T >= 0
c10 - f10_13T - f10_12N <= 0
c10 - f10_13T - f10_12N >= 0
c10 - f7_10N <= 0
c10 - f7_10N >= 0
c11 - f11_14T <= 1
c11 - f11_14T >= 0
c11 - f7_11T <= 0
c11 - f7_11T >= 0
c12 - f12_16T - f12_15N <= 0
c12 - f12_16T - f12_15N >= 0
c12 - f19_12N - f10_12N <= 0
c12 - f19_12N - f10_12N >= 0
c13 - f13_18T - f13_17N <= 0
c13 - f13_18T - f13_17N >= 0
c13 - f31_13T - f29_13T - f19_13T - f10_13T <= 0
c13 - f31_13T - f29_13T - f19_13T - f10_13T >= 0
c14 - f14_20T - f14_19N <= 0
c14 - f14_20T - f14_19N >= 0
c14 - f20_14T - f11_14T <= 0
c14 - f20_14T - f11_14T >= 0
c15 - f15_22T - f15_21N <= 0
c15 - f15_22T - f15_21N >= 0
c15 - f55_15N - f12_15N <= 0
c15 - f55_15N - f12_15N >= 0
c16 - f16_24T - f16_23N <= 0
c16 - f16_24T - f16_23N >= 0
c16 - f55_16T - f12_16T <= 0
c16 - f55_16T - f12_16T >= 0
c17 - f17_26T - f17_25N <= 0
c17 - f17_26T - f17_25N >= 0
c17 - f24_17N - f13_17N <= 0
c17 - f24_17N - f13_17N >= 0
c18 - f18_28T - f18_27N <= 0
c18 - f18_28T - f18_27N >= 0
c18 - f24_18T - f13_18T <= 0
c18 - f24_18T - f13_18T >= 0
c19 - f19_13T - f19_12N <= 0
c19 - f19_13T - f19_12N >= 0
c19 - f54_19N - f14_19N <= 0
c19 - f54_19N - f14_19N >= 0
c20 - f20_14T <= 1
c20 - f20_14T >= 0
c20 - f54_20T - f14_20T <= 0
c20 - f54_20T - f14_20T >= 0
c21 - f21_30T - f21_29N <= 0
c21 - f21_30T - f21_29N >= 0
c21 - f44_21N - f15_21N <= 0
c21 - f44_21N - f15_21N >= 0
c22 - f22_32T - f22_31N <= 0
c22 - f22_32T - f22_31N >= 0
c22 - f44_22T - f15_22T <= 0
c22 - f44_22T - f15_22T >= 0
c23 - f23_34T - f23_33N <= 0
c23 - f23_34T - f23_33N >= 0
c23 - f45_23N - f16_23N <= 0
c23 - f45_23N - f16_23N >= 0
c24 - f24_18T - f24_17N <= 0
c24 - f24_18T - f24_17N >= 0
c24 - f51_24T - f45_24T - f42_24T - f16_24T <= 0
c24 - f51_24T - f45_24T - f42_24T - f16_24T >= 0
c25 - f25_36T - f25_35N <= 0
c25 - f25_36T - f25_35N >= 0
c25 - f46_25N - f17_25N <= 0
c25 - f46_25N - f17_25N >= 0
c26 - f26_38T - f26_37N <= 0
c26 - f26_38T - f26_37N >= 0
c26 - f46_26T - f17_26T <= 0
c26 - f46_26T - f17_26T >= 0
c27 - f27_40T - f27_39N <= 0
c27 - f27_40T - f27_39N >= 0
c27 - f47_27N - f18_27N <= 0
c27 - f47_27N - f18_27N >= 0
c28 - f28_42T - f28_41N <= 0
c28 - f28_42T - f28_41N >= 0
c28 - f47_28T - f18_28T <= 0
c28 - f47_28T - f18_28T >= 0
c29 - f29_13T - f29_43N <= 0
c29 - f29_13T - f29_43N >= 0
c29 - f21_29N <= 0
c29 - f21_29N >= 0
c30 - f30_45T - f30_44N <= 0
c30 - f30_45T - f30_44N >= 0
c30 - f21_30T <= 0
c30 - f21_30T >= 0
c31 - f31_13T - f31_43N <= 0
c31 - f31_13T - f31_43N >= 0
c31 - f22_31N <= 0
c31 - f22_31N >= 0
c32 - f32_45T - f32_44N <= 0
c32 - f32_45T - f32_44N >= 0
c32 - f22_32T <= 0
c32 - f22_32T >= 0
c33 - f33_47T - f33_46N <= 0
c33 - f33_47T - f33_46N >= 0
c33 - f43_33N - f23_33N <= 0
c33 - f43_33N - f23_33N >= 0
c34 - f34_49T - f34_48N <= 0
c34 - f34_49T - f34_48N >= 0
c34 - f43_34T - f23_34T <= 0
c34 - f43_34T - f23_34T >= 0
c35 - f35_40T - f35_39N <= 0
c35 - f35_40T - f35_39N >= 0
c35 - f37_35N - f25_35N <= 0
c35 - f37_35N - f25_35N >= 0
c36 - f36_42T - f36_41N <= 0
c36 - f36_42T - f36_41N >= 0
c36 - f37_36T - f25_36T <= 0
c36 - f37_36T - f25_36T >= 0
c37 - f37_36T - f37_35N <= 0
c37 - f37_36T - f37_35N >= 0
c37 - f38_37N - f26_37N <= 0
c37 - f38_37N - f26_37N >= 0
c38 - f38_38T - f38_37N <= 0
c38 - f38_38T - f38_37N >= 0
c38 - f38_38T - f26_38T <= 0
c38 - f38_38T - f26_38T >= 0
c39 - f39_51T - f39_50N <= 0
c39 - f39_51T - f39_50N >= 0
c39 - f35_39N - f27_39N <= 0
c39 - f35_39N - f27_39N >= 0
c40 - f40_53T - f40_52N <= 0
c40 - f40_53T - f40_52N >= 0
c40 - f35_40T - f27_40T <= 0
c40 - f35_40T - f27_40T >= 0
c41 - f41_54T <= 1
c41 - f41_54T >= 0
c41 - f36_41N - f28_41N <= 0
c41 - f36_41N - f28_41N >= 0
c42 - f42_24T - f42_55N <= 0
c42 - f42_24T - f42_55N >= 0
c42 - f36_42T - f28_42T <= 0
c42 - f36_42T - f28_42T >= 0
c43 - f43_34T - f43_33N <= 0
c43 - f43_34T - f43_33N >= 0
c43 - f31_43N - f29_43N <= 0
c43 - f31_43N - f29_43N >= 0
c44 - f44_22T - f44_21N <= 0
c44 - f44_22T - f44_21N >= 0
c44 - f32_44N - f30_44N <= 0
c44 - f32_44N - f30_44N >= 0
c45 - f45_24T - f45_23N <= 0
c45 - f45_24T - f45_23N >= 0
c45 - f32_45T - f30_45T <= 0
c45 - f32_45T - f30_45T >= 0
c46 - f46_26T - f46_25N <= 0
c46 - f46_26T - f46_25N >= 0
c46 - f48_46N - f33_46N <= 0
c46 - f48_46N - f33_46N >= 0
c47 - f47_28T - f47_27N <= 0
c47 - f47_28T - f47_27N >= 0
c47 - f48_47T - f33_47T <= 0
c47 - f48_47T - f33_47T >= 0
c48 - f48_47T - f48_46N <= 0
c48 - f48_47T - f48_46N >= 0
c48 - f49_48N - f34_48N <= 0
c48 - f49_48N - f34_48N >= 0
c49 - f49_49T - f49_48N <= 0
c49 - f49_49T - f49_48N >= 0
c49 - f49_49T - f34_49T <= 0
c49 - f49_49T - f34_49T >= 0
c50 - f50_54T <= 1
c50 - f50_54T >= 0
c50 - f52_50N - f39_50N <= 0
c50 - f52_50N - f39_50N >= 0
c51 - f51_24T - f51_55N <= 0
c51 - f51_24T - f51_55N >= 0
c51 - f52_51T - f39_51T <= 0
c51 - f52_51T - f39_51T >= 0
c52 - f52_51T - f52_50N <= 0
c52 - f52_51T - f52_50N >= 0
c52 - f53_52N - f40_52N <= 0
c52 - f53_52N - f40_52N >= 0
c53 - f53_53T - f53_52N <= 0
c53 - f53_53T - f53_52N >= 0
c53 - f53_53T - f40_53T <= 0
c53 - f53_53T - f40_53T >= 0
c54 - f54_20T - f54_19N <= 0
c54 - f54_20T - f54_19N >= 0
c54 - f50_54T - f41_54T <= 0
c54 - f50_54T - f41_54T >= 0
c55 - f55_16T - f55_15N <= 0
c55 - f55_16T - f55_15N >= 0
c55 - f51_55N - f42_55N <= 0
c55 - f51_55N - f42_55N >= 0


f0_2T - fc0_2T - fm0_2T = 0
f0_1N - fc0_1N - fm0_1N = 0
f1_4T - fc1_4T - fm1_4T = 0
f1_3N - fc1_3N - fm1_3N = 0
f2_6T - fc2_6T - fm2_6T = 0
f2_5N - fc2_5N - fm2_5N = 0
f3_7N - fc3_7N - fm3_7N = 0
f4_9T - fc4_9T - fm4_9T = 0
f4_8N - fc4_8N - fm4_8N = 0
f5_7N - fc5_7N - fm5_7N = 0
f6_9T - fc6_9T - fm6_9T = 0
f6_8N - fc6_8N - fm6_8N = 0
f7_11T - fc7_11T - fm7_11T = 0
f7_10N - fc7_10N - fm7_10N = 0
f8_4T - fc8_4T - fm8_4T = 0
f8_3N - fc8_3N - fm8_3N = 0
f9_6T - fc9_6T - fm9_6T = 0
f9_5N - fc9_5N - fm9_5N = 0
f10_13T - fc10_13T - fm10_13T = 0
f10_12N - fc10_12N - fm10_12N = 0
f11_14T - fc11_14T - fm11_14T = 0
f12_16T - fc12_16T - fm12_16T = 0
f12_15N - fc12_15N - fm12_15N = 0
f13_18T - fc13_18T - fm13_18T = 0
f13_17N - fc13_17N - fm13_17N = 0
f14_20T - fc14_20T - fm14_20T = 0
f14_19N - fc14_19N - fm14_19N = 0
f15_22T - fc15_22T - fm15_22T = 0
f15_21N - fc15_21N - fm15_21N = 0
f16_24T - fc16_24T - fm16_24T = 0
f16_23N - fc16_23N - fm16_23N = 0
f17_26T - fc17_26T - fm17_26T = 0
f17_25N - fc17_25N - fm17_25N = 0
f18_28T - fc18_28T - fm18_28T = 0
f18_27N - fc18_27N - fm18_27N = 0
f19_13T - fc19_13T - fm19_13T = 0
f19_12N - fc19_12N - fm19_12N = 0
f20_14T - fc20_14T - fm20_14T = 0
f21_30T - fc21_30T - fm21_30T = 0
f21_29N - fc21_29N - fm21_29N = 0
f22_32T - fc22_32T - fm22_32T = 0
f22_31N - fc22_31N - fm22_31N = 0
f23_34T - fc23_34T - fm23_34T = 0
f23_33N - fc23_33N - fm23_33N = 0
f24_18T - fc24_18T - fm24_18T = 0
f24_17N - fc24_17N - fm24_17N = 0
f25_36T - fc25_36T - fm25_36T = 0
f25_35N - fc25_35N - fm25_35N = 0
f26_38T - fc26_38T - fm26_38T = 0
f26_37N - fc26_37N - fm26_37N = 0
f27_40T - fc27_40T - fm27_40T = 0
f27_39N - fc27_39N - fm27_39N = 0
f28_42T - fc28_42T - fm28_42T = 0
f28_41N - fc28_41N - fm28_41N = 0
f29_13T - fc29_13T - fm29_13T = 0
f29_43N - fc29_43N - fm29_43N = 0
f30_45T - fc30_45T - fm30_45T = 0
f30_44N - fc30_44N - fm30_44N = 0
f31_13T - fc31_13T - fm31_13T = 0
f31_43N - fc31_43N - fm31_43N = 0
f32_45T - fc32_45T - fm32_45T = 0
f32_44N - fc32_44N - fm32_44N = 0
f33_47T - fc33_47T - fm33_47T = 0
f33_46N - fc33_46N - fm33_46N = 0
f34_49T - fc34_49T - fm34_49T = 0
f34_48N - fc34_48N - fm34_48N = 0
f35_40T - fc35_40T - fm35_40T = 0
f35_39N - fc35_39N - fm35_39N = 0
f36_42T - fc36_42T - fm36_42T = 0
f36_41N - fc36_41N - fm36_41N = 0
f37_36T - fc37_36T - fm37_36T = 0
f37_35N - fc37_35N - fm37_35N = 0
f38_38T - fc38_38T - fm38_38T = 0
f38_37N - fc38_37N - fm38_37N = 0
f39_51T - fc39_51T - fm39_51T = 0
f39_50N - fc39_50N - fm39_50N = 0
f40_53T - fc40_53T - fm40_53T = 0
f40_52N - fc40_52N - fm40_52N = 0
f41_54T - fc41_54T - fm41_54T = 0
f42_24T - fc42_24T - fm42_24T = 0
f42_55N - fc42_55N - fm42_55N = 0
f43_34T - fc43_34T - fm43_34T = 0
f43_33N - fc43_33N - fm43_33N = 0
f44_22T - fc44_22T - fm44_22T = 0
f44_21N - fc44_21N - fm44_21N = 0
f45_24T - fc45_24T - fm45_24T = 0
f45_23N - fc45_23N - fm45_23N = 0
f46_26T - fc46_26T - fm46_26T = 0
f46_25N - fc46_25N - fm46_25N = 0
f47_28T - fc47_28T - fm47_28T = 0
f47_27N - fc47_27N - fm47_27N = 0
f48_47T - fc48_47T - fm48_47T = 0
f48_46N - fc48_46N - fm48_46N = 0
f49_49T - fc49_49T - fm49_49T = 0
f49_48N - fc49_48N - fm49_48N = 0
f50_54T - fc50_54T - fm50_54T = 0
f51_24T - fc51_24T - fm51_24T = 0
f51_55N - fc51_55N - fm51_55N = 0
f52_51T - fc52_51T - fm52_51T = 0
f52_50N - fc52_50N - fm52_50N = 0
f53_53T - fc53_53T - fm53_53T = 0
f53_52N - fc53_52N - fm53_52N = 0
f54_20T - fc54_20T - fm54_20T = 0
f54_19N - fc54_19N - fm54_19N = 0
f55_16T - fc55_16T - fm55_16T = 0
f55_15N - fc55_15N - fm55_15N = 0

c0 <= 1
c0 >= 0
c1 <= 1
c1 >= 0
c2 <= 1
c2 >= 0
c3 <= 1
c3 >= 0
c4 - p4_4N - p4_4T <= 1
c4 - p4_4N - p4_4T >= 0
c5 <= 1
c5 >= 0
c6 - p6_6N - p6_6T <= 1
c6 - p6_6N - p6_6T >= 0
c7 <= 1
c7 >= 0
c8 - p8_8T <= 1
c8 - p8_8T >= 0
c9 - p9_9T <= 1
c9 - p9_9T >= 0
c10 <= 1
c10 >= 0
c11 <= 1
c11 >= 0
c12 - p12_12N - p12_12T <= 1
c12 - p12_12N - p12_12T >= 0
c13 - p13_13N - p13_13T <= 1
c13 - p13_13N - p13_13T >= 0
c14 - p14_14N - p14_14T <= 1
c14 - p14_14N - p14_14T >= 0
c15 - p15_15N - p15_15T <= 1
c15 - p15_15N - p15_15T >= 0
c16 - p16_16N - p16_16T <= 1
c16 - p16_16N - p16_16T >= 0
c17 - p17_17N - p17_17T <= 1
c17 - p17_17N - p17_17T >= 0
c18 - p18_18N - p18_18T <= 1
c18 - p18_18N - p18_18T >= 0
c19 - p19_19N - p19_19T <= 1
c19 - p19_19N - p19_19T >= 0
c20 - p20_20T <= 1
c20 - p20_20T >= 0
c21 - p21_21N - p21_21T <= 1
c21 - p21_21N - p21_21T >= 0
c22 - p22_22N - p22_22T <= 1
c22 - p22_22N - p22_22T >= 0
c23 - p23_23N - p23_23T <= 1
c23 - p23_23N - p23_23T >= 0
c24 - p24_24N - p24_24T <= 1
c24 - p24_24N - p24_24T >= 0
c25 - p25_25N - p25_25T <= 1
c25 - p25_25N - p25_25T >= 0
c26 - p26_26N - p26_26T <= 1
c26 - p26_26N - p26_26T >= 0
c27 - p27_27N - p27_27T <= 1
c27 - p27_27N - p27_27T >= 0
c28 - p28_28N - p28_28T <= 1
c28 - p28_28N - p28_28T >= 0
c29 - p29_29N - p29_29T <= 1
c29 - p29_29N - p29_29T >= 0
c30 - p30_30N - p30_30T <= 1
c30 - p30_30N - p30_30T >= 0
c31 - p31_31N - p31_31T <= 1
c31 - p31_31N - p31_31T >= 0
c32 - p32_32N - p32_32T <= 1
c32 - p32_32N - p32_32T >= 0
c33 - p33_33N - p33_33T <= 1
c33 - p33_33N - p33_33T >= 0
c34 - p34_34N - p34_34T <= 1
c34 - p34_34N - p34_34T >= 0
c35 - p35_35N - p35_35T <= 1
c35 - p35_35N - p35_35T >= 0
c36 - p36_36N - p36_36T <= 1
c36 - p36_36N - p36_36T >= 0
c37 - p37_37N - p37_37T <= 1
c37 - p37_37N - p37_37T >= 0
c38 - p38_38N - p38_38T <= 1
c38 - p38_38N - p38_38T >= 0
c39 - p39_39N - p39_39T <= 1
c39 - p39_39N - p39_39T >= 0
c40 - p40_40N - p40_40T <= 1
c40 - p40_40N - p40_40T >= 0
c41 - p41_41T <= 1
c41 - p41_41T >= 0
c42 - p42_42N - p42_42T <= 1
c42 - p42_42N - p42_42T >= 0
c43 - p43_43N - p43_43T <= 1
c43 - p43_43N - p43_43T >= 0
c44 - p44_44N - p44_44T <= 1
c44 - p44_44N - p44_44T >= 0
c45 - p45_45N - p45_45T <= 1
c45 - p45_45N - p45_45T >= 0
c46 - p46_46N - p46_46T <= 1
c46 - p46_46N - p46_46T >= 0
c47 - p47_47N - p47_47T <= 1
c47 - p47_47N - p47_47T >= 0
c48 - p48_48N - p48_48T <= 1
c48 - p48_48N - p48_48T >= 0
c49 - p49_49N - p49_49T <= 1
c49 - p49_49N - p49_49T >= 0
c50 - p50_50T <= 1
c50 - p50_50T >= 0
c51 - p51_51N - p51_51T <= 1
c51 - p51_51N - p51_51T >= 0
c52 - p52_52N - p52_52T <= 1
c52 - p52_52N - p52_52T >= 0
c53 - p53_53N - p53_53T <= 1
c53 - p53_53N - p53_53T >= 0
c54 - p54_54N - p54_54T <= 1
c54 - p54_54N - p54_54T >= 0
c55 - p55_55N - p55_55T <= 1
c55 - p55_55N - p55_55T >= 0

f0_2T <= 1
f0_2T >= 0
f0_1N <= 1
f0_1N >= 0
f1_4T <= 1
f1_4T >= 0
f1_3N <= 1
f1_3N >= 0
f2_6T <= 1
f2_6T >= 0
f2_5N <= 1
f2_5N >= 0
f3_7N <= 1
f3_7N >= 0
f4_9T - p4_4T <= 1
f4_9T - p4_4T >= 0
f4_8N - p4_4N <= 1
f4_8N - p4_4N >= 0
f5_7N <= 1
f5_7N >= 0
f6_9T - p6_6T <= 1
f6_9T - p6_6T >= 0
f6_8N - p6_6N <= 1
f6_8N - p6_6N >= 0
f7_11T <= 1
f7_11T >= 0
f7_10N <= 1
f7_10N >= 0
f8_4T - p8_8T <= 1
f8_4T - p8_8T >= 0
f8_3N <= 1
f8_3N >= 0
f9_6T - p9_9T <= 1
f9_6T - p9_9T >= 0
f9_5N <= 1
f9_5N >= 0
f10_13T <= 1
f10_13T >= 0
f10_12N <= 1
f10_12N >= 0
f11_14T <= 1
f11_14T >= 0
f12_16T - p12_12T <= 1
f12_16T - p12_12T >= 0
f12_15N - p12_12N <= 1
f12_15N - p12_12N >= 0
f13_18T - p13_13T <= 1
f13_18T - p13_13T >= 0
f13_17N - p13_13N <= 1
f13_17N - p13_13N >= 0
f14_20T - p14_14T <= 1
f14_20T - p14_14T >= 0
f14_19N - p14_14N <= 1
f14_19N - p14_14N >= 0
f15_22T - p15_15T <= 1
f15_22T - p15_15T >= 0
f15_21N - p15_15N <= 1
f15_21N - p15_15N >= 0
f16_24T - p16_16T <= 1
f16_24T - p16_16T >= 0
f16_23N - p16_16N <= 1
f16_23N - p16_16N >= 0
f17_26T - p17_17T <= 1
f17_26T - p17_17T >= 0
f17_25N - p17_17N <= 1
f17_25N - p17_17N >= 0
f18_28T - p18_18T <= 1
f18_28T - p18_18T >= 0
f18_27N - p18_18N <= 1
f18_27N - p18_18N >= 0
f19_13T - p19_19T <= 1
f19_13T - p19_19T >= 0
f19_12N - p19_19N <= 1
f19_12N - p19_19N >= 0
f20_14T - p20_20T <= 1
f20_14T - p20_20T >= 0
f21_30T - p21_21T <= 1
f21_30T - p21_21T >= 0
f21_29N - p21_21N <= 1
f21_29N - p21_21N >= 0
f22_32T - p22_22T <= 1
f22_32T - p22_22T >= 0
f22_31N - p22_22N <= 1
f22_31N - p22_22N >= 0
f23_34T - p23_23T <= 1
f23_34T - p23_23T >= 0
f23_33N - p23_23N <= 1
f23_33N - p23_23N >= 0
f24_18T - p24_24T <= 1
f24_18T - p24_24T >= 0
f24_17N - p24_24N <= 1
f24_17N - p24_24N >= 0
f25_36T - p25_25T <= 1
f25_36T - p25_25T >= 0
f25_35N - p25_25N <= 1
f25_35N - p25_25N >= 0
f26_38T - p26_26T <= 1
f26_38T - p26_26T >= 0
f26_37N - p26_26N <= 1
f26_37N - p26_26N >= 0
f27_40T - p27_27T <= 1
f27_40T - p27_27T >= 0
f27_39N - p27_27N <= 1
f27_39N - p27_27N >= 0
f28_42T - p28_28T <= 1
f28_42T - p28_28T >= 0
f28_41N - p28_28N <= 1
f28_41N - p28_28N >= 0
f29_13T - p29_29T <= 1
f29_13T - p29_29T >= 0
f29_43N - p29_29N <= 1
f29_43N - p29_29N >= 0
f30_45T - p30_30T <= 1
f30_45T - p30_30T >= 0
f30_44N - p30_30N <= 1
f30_44N - p30_30N >= 0
f31_13T - p31_31T <= 1
f31_13T - p31_31T >= 0
f31_43N - p31_31N <= 1
f31_43N - p31_31N >= 0
f32_45T - p32_32T <= 1
f32_45T - p32_32T >= 0
f32_44N - p32_32N <= 1
f32_44N - p32_32N >= 0
f33_47T - p33_33T <= 1
f33_47T - p33_33T >= 0
f33_46N - p33_33N <= 1
f33_46N - p33_33N >= 0
f34_49T - p34_34T <= 1
f34_49T - p34_34T >= 0
f34_48N - p34_34N <= 1
f34_48N - p34_34N >= 0
f35_40T - p35_35T <= 1
f35_40T - p35_35T >= 0
f35_39N - p35_35N <= 1
f35_39N - p35_35N >= 0
f36_42T - p36_36T <= 1
f36_42T - p36_36T >= 0
f36_41N - p36_36N <= 1
f36_41N - p36_36N >= 0
f37_36T - p37_37T <= 1
f37_36T - p37_37T >= 0
f37_35N - p37_37N <= 1
f37_35N - p37_37N >= 0
f38_38T - p38_38T <= 0
f38_38T - p38_38T >= 0
f38_37N - p38_38N <= 1
f38_37N - p38_38N >= 0
f39_51T - p39_39T <= 1
f39_51T - p39_39T >= 0
f39_50N - p39_39N <= 1
f39_50N - p39_39N >= 0
f40_53T - p40_40T <= 1
f40_53T - p40_40T >= 0
f40_52N - p40_40N <= 1
f40_52N - p40_40N >= 0
f41_54T - p41_41T <= 1
f41_54T - p41_41T >= 0
f42_24T - p42_42T <= 1
f42_24T - p42_42T >= 0
f42_55N - p42_42N <= 1
f42_55N - p42_42N >= 0
f43_34T - p43_43T <= 1
f43_34T - p43_43T >= 0
f43_33N - p43_43N <= 1
f43_33N - p43_43N >= 0
f44_22T - p44_44T <= 1
f44_22T - p44_44T >= 0
f44_21N - p44_44N <= 1
f44_21N - p44_44N >= 0
f45_24T - p45_45T <= 1
f45_24T - p45_45T >= 0
f45_23N - p45_45N <= 1
f45_23N - p45_45N >= 0
f46_26T - p46_46T <= 1
f46_26T - p46_46T >= 0
f46_25N - p46_46N <= 1
f46_25N - p46_46N >= 0
f47_28T - p47_47T <= 1
f47_28T - p47_47T >= 0
f47_27N - p47_47N <= 1
f47_27N - p47_47N >= 0
f48_47T - p48_48T <= 1
f48_47T - p48_48T >= 0
f48_46N - p48_48N <= 1
f48_46N - p48_48N >= 0
f49_49T - p49_49T <= 0
f49_49T - p49_49T >= 0
f49_48N - p49_49N <= 1
f49_48N - p49_49N >= 0
f50_54T - p50_50T <= 1
f50_54T - p50_50T >= 0
f51_24T - p51_51T <= 1
f51_24T - p51_51T >= 0
f51_55N - p51_51N <= 1
f51_55N - p51_51N >= 0
f52_51T - p52_52T <= 1
f52_51T - p52_52T >= 0
f52_50N - p52_52N <= 1
f52_50N - p52_52N >= 0
f53_53T - p53_53T <= 0
f53_53T - p53_53T >= 0
f53_52N - p53_53N <= 1
f53_52N - p53_53N >= 0
f54_20T - p54_54T <= 1
f54_20T - p54_54T >= 0
f54_19N - p54_54N <= 1
f54_19N - p54_54N >= 0
f55_16T - p55_55T <= 1
f55_16T - p55_55T >= 0
f55_15N - p55_55N <= 1
f55_15N - p55_55N >= 0

fm0_2T <= 1
fm0_1N <= 1
fm1_4T <= 1
fm1_3N <= 1
fm2_6T <= 1
fm2_5N <= 1
fm3_7N <= 1
fm4_9T - p4_4N <= 1
fm4_8N - p4_4T <= 1
fm5_7N <= 1
fm6_9T - p6_6N <= 1
fm6_8N - p6_6T <= 1
fm7_11T <= 1
fm7_10N <= 1
fm8_4T <= 1
fm8_3N - p8_8T <= 1
fm9_6T <= 1
fm9_5N - p9_9T <= 1
fm10_13T <= 1
fm10_12N <= 1
fm11_14T <= 1
fm12_16T - p12_12N <= 1
fm12_15N - p12_12T <= 1
fm13_18T - p13_13N <= 1
fm13_17N - p13_13T <= 1
fm14_20T - p14_14N <= 1
fm14_19N - p14_14T <= 1
fm15_22T - p15_15N <= 1
fm15_21N - p15_15T <= 1
fm16_24T - p16_16N <= 1
fm16_23N - p16_16T <= 1
fm17_26T - p17_17N <= 1
fm17_25N - p17_17T <= 1
fm18_28T - p18_18N <= 1
fm18_27N - p18_18T <= 1
fm19_13T - p19_19N <= 1
fm19_12N - p19_19T <= 1
fm20_14T <= 1
fm21_30T - p21_21N <= 1
fm21_29N - p21_21T <= 1
fm22_32T - p22_22N <= 1
fm22_31N - p22_22T <= 1
fm23_34T - p23_23N <= 1
fm23_33N - p23_23T <= 1
fm24_18T - p24_24N <= 1
fm24_17N - p24_24T <= 1
fm25_36T - p25_25N <= 1
fm25_35N - p25_25T <= 1
fm26_38T - p26_26N <= 1
fm26_37N - p26_26T <= 1
fm27_40T - p27_27N <= 1
fm27_39N - p27_27T <= 1
fm28_42T - p28_28N <= 1
fm28_41N - p28_28T <= 1
fm29_13T - p29_29N <= 1
fm29_43N - p29_29T <= 1
fm30_45T - p30_30N <= 1
fm30_44N - p30_30T <= 1
fm31_13T - p31_31N <= 1
fm31_43N - p31_31T <= 1
fm32_45T - p32_32N <= 1
fm32_44N - p32_32T <= 1
fm33_47T - p33_33N <= 1
fm33_46N - p33_33T <= 1
fm34_49T - p34_34N <= 1
fm34_48N - p34_34T <= 1
fm35_40T - p35_35N <= 1
fm35_39N - p35_35T <= 1
fm36_42T - p36_36N <= 1
fm36_41N - p36_36T <= 1
fm37_36T - p37_37N <= 1
fm37_35N - p37_37T <= 1
fm38_38T - p38_38N <= 1
fm38_37N - p38_38T <= 1
fm39_51T - p39_39N <= 1
fm39_50N - p39_39T <= 1
fm40_53T - p40_40N <= 1
fm40_52N - p40_40T <= 1
fm41_54T <= 1
fm42_24T - p42_42N <= 1
fm42_55N - p42_42T <= 1
fm43_34T - p43_43N <= 1
fm43_33N - p43_43T <= 1
fm44_22T - p44_44N <= 1
fm44_21N - p44_44T <= 1
fm45_24T - p45_45N <= 1
fm45_23N - p45_45T <= 1
fm46_26T - p46_46N <= 1
fm46_25N - p46_46T <= 1
fm47_28T - p47_47N <= 1
fm47_27N - p47_47T <= 1
fm48_47T - p48_48N <= 1
fm48_46N - p48_48T <= 1
fm49_49T - p49_49N <= 1
fm49_48N - p49_49T <= 1
fm50_54T <= 1
fm51_24T - p51_51N <= 1
fm51_55N - p51_51T <= 1
fm52_51T - p52_52N <= 1
fm52_50N - p52_52T <= 1
fm53_53T - p53_53N <= 1
fm53_52N - p53_53T <= 1
fm54_20T - p54_54N <= 1
fm54_19N - p54_54T <= 1
fm55_16T - p55_55N <= 1
fm55_15N - p55_55T <= 1

b1 - c0 - c4 - c6 = 0
b4 - c2 - c1 - c9 - c8 = 0
b7 - c5 - c3 = 0
b9 - c14 - c7 - c54 = 0
b10 - c19 - c42 - c10 - c51 = 0
b12 - c55 - c32 - c12 - c30 = 0
b13 - c44 - c15 = 0
b16 - c22 - c21 = 0
b17 - c45 - c31 - c16 - c29 = 0
b19 - c49 - c23 - c34 - c43 = 0
b20 - c24 - c48 - c13 - c33 = 0
b22 - c46 - c26 - c17 - c38 = 0
b23 - c25 - c47 - c37 - c18 = 0
b25 - c35 - c40 - c27 - c53 = 0
b26 - c39 - c36 - c52 - c28 = 0
b27 - c50 - c11 - c41 - c20 = 0
d1_2 - dc1_2 - dm1_2 = 0
d1_3 - dc1_3 - dm1_3 = 0
d4_5 - dc4_5 - dm4_5 = 0
d4_1 - dc4_1 - dm4_1 = 0
d7_8 - dc7_8 - dm7_8 = 0
d7_28 - dc7_28 - dm7_28 = 0
d9_10 - dc9_10 - dm9_10 = 0
d9_27 - dc9_27 - dm9_27 = 0
d10_11 - dc10_11 - dm10_11 = 0
d10_20 - dc10_20 - dm10_20 = 0
d12_13 - dc12_13 - dm12_13 = 0
d12_17 - dc12_17 - dm12_17 = 0
d13_14 - dc13_14 - dm13_14 = 0
d13_15 - dc13_15 - dm13_15 = 0
d16_17 - dc16_17 - dm16_17 = 0
d16_12 - dc16_12 - dm16_12 = 0
d17_18 - dc17_18 - dm17_18 = 0
d17_20 - dc17_20 - dm17_20 = 0
d19_20 - dc19_20 - dm19_20 = 0
d19_19 - dc19_19 - dm19_19 = 0
d20_21 - dc20_21 - dm20_21 = 0
d20_23 - dc20_23 - dm20_23 = 0
d22_23 - dc22_23 - dm22_23 = 0
d22_22 - dc22_22 - dm22_22 = 0
d23_24 - dc23_24 - dm23_24 = 0
d23_26 - dc23_26 - dm23_26 = 0
d25_26 - dc25_26 - dm25_26 = 0
d25_25 - dc25_25 - dm25_25 = 0
d26_27 - dc26_27 - dm26_27 = 0
d26_10 - dc26_10 - dm26_10 = 0
d27_28 - dc27_28 - dm27_28 = 0
d27_9 - dc27_9 - dm27_9 = 0
d1_2 - f0_1N - f4_8N - f6_8N = 0
dm1_2 - fm0_1N - fm4_8N - fm6_8N = 0
d1_3 - f0_2T - f4_9T - f6_9T = 0
dm1_3 - fm0_2T - fm4_9T - fm6_9T = 0
d4_5 - f2_5N - f1_3N - f9_5N - f8_3N = 0
dm4_5 - fm2_5N - fm1_3N - fm9_5N - fm8_3N = 0
d4_1 - f2_6T - f1_4T - f9_6T - f8_4T = 0
dm4_1 - fm2_6T - fm1_4T - fm9_6T - fm8_4T = 0
d7_8 - f5_7N - f3_7N = 0
dm7_8 - fm5_7N - fm3_7N = 0
d7_28 <= 1
dm7_28 <= 1
d9_10 - f14_19N - f7_10N - f54_19N = 0
dm9_10 - fm14_19N - fm7_10N - fm54_19N = 0
d9_27 - f14_20T - f7_11T - f54_20T = 0
dm9_27 - fm14_20T - fm7_11T - fm54_20T = 0
d10_11 - f19_12N - f42_55N - f10_12N - f51_55N = 0
dm10_11 - fm19_12N - fm42_55N - fm10_12N - fm51_55N = 0
d10_20 - f19_13T - f42_24T - f10_13T - f51_24T = 0
dm10_20 - fm19_13T - fm42_24T - fm10_13T - fm51_24T = 0
d12_13 - f55_15N - f32_44N - f12_15N - f30_44N = 0
dm12_13 - fm55_15N - fm32_44N - fm12_15N - fm30_44N = 0
d12_17 - f55_16T - f32_45T - f12_16T - f30_45T = 0
dm12_17 - fm55_16T - fm32_45T - fm12_16T - fm30_45T = 0
d13_14 - f44_21N - f15_21N = 0
dm13_14 - fm44_21N - fm15_21N = 0
d13_15 - f44_22T - f15_22T = 0
dm13_15 - fm44_22T - fm15_22T = 0
d16_17 - f22_31N - f21_29N = 0
dm16_17 - fm22_31N - fm21_29N = 0
d16_12 - f22_32T - f21_30T = 0
dm16_12 - fm22_32T - fm21_30T = 0
d17_18 - f45_23N - f31_43N - f16_23N - f29_43N = 0
dm17_18 - fm45_23N - fm31_43N - fm16_23N - fm29_43N = 0
d17_20 - f45_24T - f31_13T - f16_24T - f29_13T = 0
dm17_20 - fm45_24T - fm31_13T - fm16_24T - fm29_13T = 0
d19_20 - f49_48N - f23_33N - f34_48N - f43_33N = 0
dm19_20 - fm49_48N - fm23_33N - fm34_48N - fm43_33N = 0
d19_19 - f49_49T - f23_34T - f34_49T - f43_34T = 0
dm19_19 - fm49_49T - fm23_34T - fm34_49T - fm43_34T = 0
d20_21 - f24_17N - f48_46N - f13_17N - f33_46N = 0
dm20_21 - fm24_17N - fm48_46N - fm13_17N - fm33_46N = 0
d20_23 - f24_18T - f48_47T - f13_18T - f33_47T = 0
dm20_23 - fm24_18T - fm48_47T - fm13_18T - fm33_47T = 0
d22_23 - f46_25N - f26_37N - f17_25N - f38_37N = 0
dm22_23 - fm46_25N - fm26_37N - fm17_25N - fm38_37N = 0
d22_22 - f46_26T - f26_38T - f17_26T - f38_38T = 0
dm22_22 - fm46_26T - fm26_38T - fm17_26T - fm38_38T = 0
d23_24 - f25_35N - f47_27N - f37_35N - f18_27N = 0
dm23_24 - fm25_35N - fm47_27N - fm37_35N - fm18_27N = 0
d23_26 - f25_36T - f47_28T - f37_36T - f18_28T = 0
dm23_26 - fm25_36T - fm47_28T - fm37_36T - fm18_28T = 0
d25_26 - f35_39N - f40_52N - f27_39N - f53_52N = 0
dm25_26 - fm35_39N - fm40_52N - fm27_39N - fm53_52N = 0
d25_25 - f35_40T - f40_53T - f27_40T - f53_53T = 0
dm25_25 - fm35_40T - fm40_53T - fm27_40T - fm53_53T = 0
d26_27 - f39_50N - f36_41N - f52_50N - f28_41N = 0
dm26_27 - fm39_50N - fm36_41N - fm52_50N - fm28_41N = 0
d26_10 - f39_51T - f36_42T - f52_51T - f28_42T = 0
dm26_10 - fm39_51T - fm36_42T - fm52_51T - fm28_42T = 0
d27_28 <= 1
dm27_28 <= 1
d27_9 - f50_54T - f11_14T - f41_54T - f20_14T = 0
dm27_9 - fm50_54T - fm11_14T - fm41_54T - fm20_14T = 0


\ === tcfg_estunit_cons_ps ===
d0_1 - d0_1.0 >= 0
d0_1.0 <= 1
d1_2 - d1_2.0 >= 0
d1_2.0 <= 1
d1_3 - d1_3.0 >= 0
d1_3.0 <= 1
d2_4 - d2_4.0 >= 0
d2_4.0 <= 1
d3_4 - d3_4.0 >= 0
d3_4.0 <= 1
d4_5 - d4_5.0 >= 0
d4_5.0 <= 1
d4_1 - d4_1.0 >= 0
d4_1.0 <= 1
d5_7 - d5_7.0 >= 0
d5_7.0 <= 1
d7_8 - d7_8.0 >= 0
d7_8.0 <= 1
d7_28 - d7_28.0 >= 0
d7_28.0 <= 1
d8_9 - d8_9.0 >= 0
d8_9.0 <= 1
d9_10 - d9_10.0 >= 0
d9_10.0 <= 1
d9_27 - d9_27.0 >= 0
d9_27.0 <= 1
d10_11 - d10_11.0 >= 0
d10_11.0 <= 1
d10_20 - d10_20.0 >= 0
d10_20.0 <= 1
d11_12 - d11_12.0 >= 0
d11_12.0 <= 1
d12_13 - d12_13.0 >= 0
d12_13.0 <= 1
d12_17 - d12_17.0 >= 0
d12_17.0 <= 1
d13_14 - d13_14.0 >= 0
d13_14.0 <= 1
d13_15 - d13_15.0 >= 0
d13_15.0 <= 1
d14_16 - d14_16.0 >= 0
d14_16.0 <= 1
d15_16 - d15_16.0 >= 0
d15_16.0 <= 1
d16_17 - d16_17.0 >= 0
d16_17.0 <= 1
d16_12 - d16_12.0 >= 0
d16_12.0 <= 1
d17_18 - d17_18.0 >= 0
d17_18.0 <= 1
d17_20 - d17_20.0 >= 0
d17_20.0 <= 1
d18_19 - d18_19.0 >= 0
d18_19.0 <= 1
d19_20 - d19_20.0 >= 0
d19_20.0 <= 1
d19_19 - d19_19.0 >= 0
d19_19.0 <= 1
d20_21 - d20_21.0 >= 0
d20_21.0 <= 1
d20_23 - d20_23.0 >= 0
d20_23.0 <= 1
d21_22 - d21_22.0 >= 0
d21_22.0 <= 1
d22_23 - d22_23.0 >= 0
d22_23.0 <= 1
d22_22 - d22_22.0 >= 0
d22_22.0 <= 1
d23_24 - d23_24.0 >= 0
d23_24.0 <= 1
d23_26 - d23_26.0 >= 0
d23_26.0 <= 1
d24_25 - d24_25.0 >= 0
d24_25.0 <= 1
d25_26 - d25_26.0 >= 0
d25_26.0 <= 1
d25_25 - d25_25.0 >= 0
d25_25.0 <= 1
d26_27 - d26_27.0 >= 0
d26_27.0 <= 1
d26_10 - d26_10.0 >= 0
d26_10.0 <= 1
d27_28 - d27_28.0 >= 0
d27_28.0 <= 1
d27_9 - d27_9.0 >= 0
d27_9.0 <= 1
d28_6 - d28_6.0 >= 0
d28_6.0 <= 1

\ === infeasible path constraints ===

b7 = 1
b8 = 1
b9 = 15
b10 = 32767
b11 = 32767
b12 = 323582
b13 = 315391
b16 = 315391
b17 = 32767
b18 = 8191
b19 = 53248
b20 = 32767
b21 = 24576
b22 = 122881
b23 = 32767
b24 = 32767
b25 = 491520
b26 = 32767
b27 = 15
b28 = 1
b0 = 1
b1 = 32768
b2 = 16384
b3 = 16384
b4 = 32768
b5 = 1
b6 = 1

Generals

bm
Sta
b0
d0_1
b1
d1_2
d1_3
b2
d2_4
b3
d3_4
b4
d4_5
d4_1
b5
d5_7
b6
b7
d7_8
d7_28
b8
d8_9
b9
d9_10
d9_27
b10
d10_11
d10_20
b11
d11_12
b12
d12_13
d12_17
b13
d13_14
d13_15
b14
d14_16
b15
d15_16
b16
d16_17
d16_12
b17
d17_18
d17_20
b18
d18_19
b19
d19_20
d19_19
b20
d20_21
d20_23
b21
d21_22
b22
d22_23
d22_22
b23
d23_24
d23_26
b24
d24_25
b25
d25_26
d25_25
b26
d26_27
d26_10
b27
d27_28
d27_9
b28
d28_6
c0
f0_2T
f0_1N
f0_2T
f0_1N
c1
f1_4T
f1_3N
f1_4T
f1_3N
c2
f2_6T
f2_5N
f2_6T
f2_5N
c3
f3_7N
f3_7N
c4
f4_9T
f4_8N
f4_9T
f4_8N
c5
f5_7N
f5_7N
c6
f6_9T
f6_8N
f6_9T
f6_8N
c7
f7_11T
f7_10N
f7_11T
f7_10N
c8
f8_4T
f8_3N
f8_4T
f8_3N
c9
f9_6T
f9_5N
f9_6T
f9_5N
c10
f10_13T
f10_12N
f10_13T
f10_12N
c11
f11_14T
f11_14T
c12
f12_16T
f12_15N
f12_16T
f12_15N
c13
f13_18T
f13_17N
f13_18T
f13_17N
c14
f14_20T
f14_19N
f14_20T
f14_19N
c15
f15_22T
f15_21N
f15_22T
f15_21N
c16
f16_24T
f16_23N
f16_24T
f16_23N
c17
f17_26T
f17_25N
f17_26T
f17_25N
c18
f18_28T
f18_27N
f18_28T
f18_27N
c19
f19_13T
f19_12N
f19_13T
f19_12N
c20
f20_14T
f20_14T
c21
f21_30T
f21_29N
f21_30T
f21_29N
c22
f22_32T
f22_31N
f22_32T
f22_31N
c23
f23_34T
f23_33N
f23_34T
f23_33N
c24
f24_18T
f24_17N
f24_18T
f24_17N
c25
f25_36T
f25_35N
f25_36T
f25_35N
c26
f26_38T
f26_37N
f26_38T
f26_37N
c27
f27_40T
f27_39N
f27_40T
f27_39N
c28
f28_42T
f28_41N
f28_42T
f28_41N
c29
f29_13T
f29_43N
f29_13T
f29_43N
c30
f30_45T
f30_44N
f30_45T
f30_44N
c31
f31_13T
f31_43N
f31_13T
f31_43N
c32
f32_45T
f32_44N
f32_45T
f32_44N
c33
f33_47T
f33_46N
f33_47T
f33_46N
c34
f34_49T
f34_48N
f34_49T
f34_48N
c35
f35_40T
f35_39N
f35_40T
f35_39N
c36
f36_42T
f36_41N
f36_42T
f36_41N
c37
f37_36T
f37_35N
f37_36T
f37_35N
c38
f38_38T
f38_37N
f38_38T
f38_37N
c39
f39_51T
f39_50N
f39_51T
f39_50N
c40
f40_53T
f40_52N
f40_53T
f40_52N
c41
f41_54T
f41_54T
c42
f42_24T
f42_55N
f42_24T
f42_55N
c43
f43_34T
f43_33N
f43_34T
f43_33N
c44
f44_22T
f44_21N
f44_22T
f44_21N
c45
f45_24T
f45_23N
f45_24T
f45_23N
c46
f46_26T
f46_25N
f46_26T
f46_25N
c47
f47_28T
f47_27N
f47_28T
f47_27N
c48
f48_47T
f48_46N
f48_47T
f48_46N
c49
f49_49T
f49_48N
f49_49T
f49_48N
c50
f50_54T
f50_54T
c51
f51_24T
f51_55N
f51_24T
f51_55N
c52
f52_51T
f52_50N
f52_51T
f52_50N
c53
f53_53T
f53_52N
f53_53T
f53_52N
c54
f54_20T
f54_19N
f54_20T
f54_19N
c55
f55_16T
f55_15N
f55_16T
f55_15N
fc0_2T
fm0_2T
fc0_1N
fm0_1N
fc1_4T
fm1_4T
fc1_3N
fm1_3N
fc2_6T
fm2_6T
fc2_5N
fm2_5N
fc3_7N
fm3_7N
fc4_9T
fm4_9T
fc4_8N
fm4_8N
fc5_7N
fm5_7N
fc6_9T
fm6_9T
fc6_8N
fm6_8N
fc7_11T
fm7_11T
fc7_10N
fm7_10N
fc8_4T
fm8_4T
fc8_3N
fm8_3N
fc9_6T
fm9_6T
fc9_5N
fm9_5N
fc10_13T
fm10_13T
fc10_12N
fm10_12N
fc11_14T
fm11_14T
fc12_16T
fm12_16T
fc12_15N
fm12_15N
fc13_18T
fm13_18T
fc13_17N
fm13_17N
fc14_20T
fm14_20T
fc14_19N
fm14_19N
fc15_22T
fm15_22T
fc15_21N
fm15_21N
fc16_24T
fm16_24T
fc16_23N
fm16_23N
fc17_26T
fm17_26T
fc17_25N
fm17_25N
fc18_28T
fm18_28T
fc18_27N
fm18_27N
fc19_13T
fm19_13T
fc19_12N
fm19_12N
fc20_14T
fm20_14T
fc21_30T
fm21_30T
fc21_29N
fm21_29N
fc22_32T
fm22_32T
fc22_31N
fm22_31N
fc23_34T
fm23_34T
fc23_33N
fm23_33N
fc24_18T
fm24_18T
fc24_17N
fm24_17N
fc25_36T
fm25_36T
fc25_35N
fm25_35N
fc26_38T
fm26_38T
fc26_37N
fm26_37N
fc27_40T
fm27_40T
fc27_39N
fm27_39N
fc28_42T
fm28_42T
fc28_41N
fm28_41N
fc29_13T
fm29_13T
fc29_43N
fm29_43N
fc30_45T
fm30_45T
fc30_44N
fm30_44N
fc31_13T
fm31_13T
fc31_43N
fm31_43N
fc32_45T
fm32_45T
fc32_44N
fm32_44N
fc33_47T
fm33_47T
fc33_46N
fm33_46N
fc34_49T
fm34_49T
fc34_48N
fm34_48N
fc35_40T
fm35_40T
fc35_39N
fm35_39N
fc36_42T
fm36_42T
fc36_41N
fm36_41N
fc37_36T
fm37_36T
fc37_35N
fm37_35N
fc38_38T
fm38_38T
fc38_37N
fm38_37N
fc39_51T
fm39_51T
fc39_50N
fm39_50N
fc40_53T
fm40_53T
fc40_52N
fm40_52N
fc41_54T
fm41_54T
fc42_24T
fm42_24T
fc42_55N
fm42_55N
fc43_34T
fm43_34T
fc43_33N
fm43_33N
fc44_22T
fm44_22T
fc44_21N
fm44_21N
fc45_24T
fm45_24T
fc45_23N
fm45_23N
fc46_26T
fm46_26T
fc46_25N
fm46_25N
fc47_28T
fm47_28T
fc47_27N
fm47_27N
fc48_47T
fm48_47T
fc48_46N
fm48_46N
fc49_49T
fm49_49T
fc49_48N
fm49_48N
fc50_54T
fm50_54T
fc51_24T
fm51_24T
fc51_55N
fm51_55N
fc52_51T
fm52_51T
fc52_50N
fm52_50N
fc53_53T
fm53_53T
fc53_52N
fm53_52N
fc54_20T
fm54_20T
fc54_19N
fm54_19N
fc55_16T
fm55_16T
fc55_15N
fm55_15N
dc1_2
dm1_2
dc1_3
dm1_3
dc4_5
dm4_5
dc4_1
dm4_1
dc7_8
dm7_8
dc7_28
dm7_28
dc9_10
dm9_10
dc9_27
dm9_27
dc10_11
dm10_11
dc10_20
dm10_20
dc12_13
dm12_13
dc12_17
dm12_17
dc13_14
dm13_14
dc13_15
dm13_15
dc16_17
dm16_17
dc16_12
dm16_12
dc17_18
dm17_18
dc17_20
dm17_20
dc19_20
dm19_20
dc19_19
dm19_19
dc20_21
dm20_21
dc20_23
dm20_23
dc22_23
dm22_23
dc22_22
dm22_22
dc23_24
dm23_24
dc23_26
dm23_26
dc25_26
dm25_26
dc25_25
dm25_25
dc26_27
dm26_27
dc26_10
dm26_10
dc27_28
dm27_28
dc27_9
dm27_9

End
\ total_cons: 1046 	total_vars: 619
optimize
set logfile ../benchmarks/msort_org/mergesort_org/mergesort_org.sol
display solution objective
display solution variables -
quit
